[VALIDATOR STDOUT]
Checking plan: /home/jfan5/Safety-gen/runs/benchmark/optic/blocksworld_20260205_140901/blocksworld/optic_results/bw_ops3_n29_seed29001.plan
Plan to validate:

Plan size: 148
1:
(unstack b18 b29)
 
2:
(putdown b18)
 
3:
(pickup b7)
 
4:
(stack b7 b29)
 
5:
(unstack b1 b9)
 
6:
(putdown b1)
 
7:
(unstack b9 b17)
 
8:
(stack b9 b7)
 
9:
(unstack b28 b14)
 
10:
(putdown b28)
 
11:
(unstack b14 b16)
 
12:
(putdown b14)
 
13:
(unstack b16 b22)
 
14:
(stack b16 b1)
 
15:
(unstack b22 b4)
 
16:
(putdown b22)
 
17:
(unstack b4 b12)
 
18:
(putdown b4)
 
19:
(unstack b12 b25)
 
20:
(putdown b12)
 
21:
(unstack b25 b23)
 
22:
(putdown b25)
 
23:
(unstack b23 b13)
 
24:
(putdown b23)
 
25:
(pickup b22)
 
26:
(stack b22 b4)
 
27:
(unstack b13 b2)
 
28:
(putdown b13)
 
29:
(unstack b2 b20)
 
30:
(stack b2 b18)
 
31:
(unstack b20 b26)
 
32:
(putdown b20)
 
33:
(pickup b28)
 
34:
(stack b28 b20)
 
35:
(unstack b26 b8)
 
36:
(stack b26 b23)
 
37:
(unstack b8 b3)
 
38:
(putdown b8)
 
39:
(unstack b3 b10)
 
40:
(putdown b3)
 
41:
(pickup b17)
 
42:
(stack b17 b26)
 
43:
(pickup b13)
 
44:
(stack b13 b10)
 
45:
(unstack b2 b18)
 
46:
(putdown b2)
 
47:
(pickup b18)
 
48:
(stack b18 b8)
 
49:
(pickup b2)
 
50:
(stack b2 b18)
 
51:
(unstack b13 b10)
 
52:
(putdown b13)
 
53:
(unstack b10 b11)
 
54:
(putdown b10)
 
55:
(pickup b13)
 
56:
(stack b13 b10)
 
57:
(unstack b11 b6)
 
58:
(stack b11 b28)
 
59:
(unstack b6 b21)
 
60:
(stack b6 b2)
 
61:
(unstack b22 b4)
 
62:
(putdown b22)
 
63:
(pickup b4)
 
64:
(stack b4 b6)
 
65:
(pickup b22)
 
66:
(stack b22 b4)
 
67:
(unstack b13 b10)
 
68:
(putdown b13)
 
69:
(pickup b10)
 
70:
(stack b10 b11)
 
71:
(pickup b13)
 
72:
(stack b13 b10)
 
73:
(unstack b21 b27)
 
74:
(putdown b21)
 
75:
(unstack b27 b19)
 
76:
(stack b27 b25)
 
77:
(pickup b19)
 
78:
(stack b19 b3)
 
79:
(pickup b14)
 
80:
(stack b14 b19)
 
81:
(pickup b12)
 
82:
(stack b12 b27)
 
83:
(unstack b9 b7)
 
84:
(putdown b9)
 
85:
(unstack b7 b29)
 
86:
(putdown b7)
 
87:
(pickup b9)
 
88:
(stack b9 b7)
 
89:
(unstack b29 b5)
 
90:
(stack b29 b22)
 
91:
(unstack b5 b15)
 
92:
(stack b5 b9)
 
93:
(pickup b21)
 
94:
(stack b21 b5)
 
95:
(unstack b15 b24)
 
96:
(stack b15 b13)
 
97:
(pickup b24)
 
98:
(stack b24 b21)
 
99:
(unstack b16 b1)
 
100:
(putdown b16)
 
101:
(pickup b1)
 
102:
(stack b1 b24)
 
103:
(pickup b16)
 
104:
(stack b16 b1)
 
105:
(unstack b12 b27)
 
106:
(putdown b12)
 
107:
(unstack b27 b25)
 
108:
(putdown b27)
 
109:
(pickup b25)
 
110:
(stack b25 b15)
 
111:
(pickup b27)
 
112:
(stack b27 b25)
 
113:
(pickup b12)
 
114:
(stack b12 b27)
 
115:
(unstack b16 b1)
 
116:
(putdown b16)
 
117:
(unstack b1 b24)
 
118:
(putdown b1)
 
119:
(unstack b24 b21)
 
120:
(putdown b24)
 
121:
(unstack b21 b5)
 
122:
(putdown b21)
 
123:
(unstack b5 b9)
 
124:
(putdown b5)
 
125:
(pickup b24)
 
126:
(stack b24 b21)
 
127:
(unstack b9 b7)
 
128:
(putdown b9)
 
129:
(pickup b7)
 
130:
(stack b7 b29)
 
131:
(pickup b9)
 
132:
(stack b9 b7)
 
133:
(pickup b5)
 
134:
(stack b5 b9)
 
135:
(pickup b16)
 
136:
(stack b16 b1)
 
137:
(unstack b24 b21)
 
138:
(putdown b24)
 
139:
(pickup b21)
 
140:
(stack b21 b5)
 
141:
(pickup b24)
 
142:
(stack b24 b21)
 
143:
(unstack b16 b1)
 
144:
(putdown b16)
 
145:
(pickup b1)
 
146:
(stack b1 b24)
 
147:
(pickup b16)
 
148:
(stack b16 b1)
 

Plan Validation details
-----------------------

Checking next happening (time 1)
Deleting (on b18 b29)
Deleting (clear b18)
Deleting (arm-empty)
Adding (holding b18)
Adding (clear b29)

Checking next happening (time 2)
Deleting (holding b18)
Adding (clear b18)
Adding (arm-empty)
Adding (on-table b18)

Checking next happening (time 3)
Deleting (clear b7)
Deleting (on-table b7)
Deleting (arm-empty)
Adding (holding b7)

Checking next happening (time 4)
Deleting (clear b29)
Deleting (holding b7)
Adding (arm-empty)
Adding (clear b7)
Adding (on b7 b29)

Checking next happening (time 5)
Deleting (on b1 b9)
Deleting (clear b1)
Deleting (arm-empty)
Adding (holding b1)
Adding (clear b9)

Checking next happening (time 6)
Deleting (holding b1)
Adding (clear b1)
Adding (arm-empty)
Adding (on-table b1)

Checking next happening (time 7)
Deleting (on b9 b17)
Deleting (clear b9)
Deleting (arm-empty)
Adding (holding b9)
Adding (clear b17)

Checking next happening (time 8)
Deleting (clear b7)
Deleting (holding b9)
Adding (arm-empty)
Adding (clear b9)
Adding (on b9 b7)

Checking next happening (time 9)
Deleting (on b28 b14)
Deleting (clear b28)
Deleting (arm-empty)
Adding (holding b28)
Adding (clear b14)

Checking next happening (time 10)
Deleting (holding b28)
Adding (clear b28)
Adding (arm-empty)
Adding (on-table b28)

Checking next happening (time 11)
Deleting (on b14 b16)
Deleting (clear b14)
Deleting (arm-empty)
Adding (holding b14)
Adding (clear b16)

Checking next happening (time 12)
Deleting (holding b14)
Adding (clear b14)
Adding (arm-empty)
Adding (on-table b14)

Checking next happening (time 13)
Deleting (on b16 b22)
Deleting (clear b16)
Deleting (arm-empty)
Adding (holding b16)
Adding (clear b22)

Checking next happening (time 14)
Deleting (clear b1)
Deleting (holding b16)
Adding (arm-empty)
Adding (clear b16)
Adding (on b16 b1)

Checking next happening (time 15)
Deleting (on b22 b4)
Deleting (clear b22)
Deleting (arm-empty)
Adding (holding b22)
Adding (clear b4)

Checking next happening (time 16)
Deleting (holding b22)
Adding (clear b22)
Adding (arm-empty)
Adding (on-table b22)

Checking next happening (time 17)
Deleting (on b4 b12)
Deleting (clear b4)
Deleting (arm-empty)
Adding (holding b4)
Adding (clear b12)

Checking next happening (time 18)
Deleting (holding b4)
Adding (clear b4)
Adding (arm-empty)
Adding (on-table b4)

Checking next happening (time 19)
Deleting (on b12 b25)
Deleting (clear b12)
Deleting (arm-empty)
Adding (holding b12)
Adding (clear b25)

Checking next happening (time 20)
Deleting (holding b12)
Adding (clear b12)
Adding (arm-empty)
Adding (on-table b12)

Checking next happening (time 21)
Deleting (on b25 b23)
Deleting (clear b25)
Deleting (arm-empty)
Adding (holding b25)
Adding (clear b23)

Checking next happening (time 22)
Deleting (holding b25)
Adding (clear b25)
Adding (arm-empty)
Adding (on-table b25)

Checking next happening (time 23)
Deleting (on b23 b13)
Deleting (clear b23)
Deleting (arm-empty)
Adding (holding b23)
Adding (clear b13)

Checking next happening (time 24)
Deleting (holding b23)
Adding (clear b23)
Adding (arm-empty)
Adding (on-table b23)

Checking next happening (time 25)
Deleting (clear b22)
Deleting (on-table b22)
Deleting (arm-empty)
Adding (holding b22)

Checking next happening (time 26)
Deleting (clear b4)
Deleting (holding b22)
Adding (arm-empty)
Adding (clear b22)
Adding (on b22 b4)

Checking next happening (time 27)
Deleting (on b13 b2)
Deleting (clear b13)
Deleting (arm-empty)
Adding (holding b13)
Adding (clear b2)

Checking next happening (time 28)
Deleting (holding b13)
Adding (clear b13)
Adding (arm-empty)
Adding (on-table b13)

Checking next happening (time 29)
Deleting (on b2 b20)
Deleting (clear b2)
Deleting (arm-empty)
Adding (holding b2)
Adding (clear b20)

Checking next happening (time 30)
Deleting (clear b18)
Deleting (holding b2)
Adding (arm-empty)
Adding (clear b2)
Adding (on b2 b18)

Checking next happening (time 31)
Deleting (on b20 b26)
Deleting (clear b20)
Deleting (arm-empty)
Adding (holding b20)
Adding (clear b26)

Checking next happening (time 32)
Deleting (holding b20)
Adding (clear b20)
Adding (arm-empty)
Adding (on-table b20)

Checking next happening (time 33)
Deleting (clear b28)
Deleting (on-table b28)
Deleting (arm-empty)
Adding (holding b28)

Checking next happening (time 34)
Deleting (clear b20)
Deleting (holding b28)
Adding (arm-empty)
Adding (clear b28)
Adding (on b28 b20)

Checking next happening (time 35)
Deleting (on b26 b8)
Deleting (clear b26)
Deleting (arm-empty)
Adding (holding b26)
Adding (clear b8)

Checking next happening (time 36)
Deleting (clear b23)
Deleting (holding b26)
Adding (arm-empty)
Adding (clear b26)
Adding (on b26 b23)

Checking next happening (time 37)
Deleting (on b8 b3)
Deleting (clear b8)
Deleting (arm-empty)
Adding (holding b8)
Adding (clear b3)

Checking next happening (time 38)
Deleting (holding b8)
Adding (clear b8)
Adding (arm-empty)
Adding (on-table b8)

Checking next happening (time 39)
Deleting (on b3 b10)
Deleting (clear b3)
Deleting (arm-empty)
Adding (holding b3)
Adding (clear b10)

Checking next happening (time 40)
Deleting (holding b3)
Adding (clear b3)
Adding (arm-empty)
Adding (on-table b3)

Checking next happening (time 41)
Deleting (clear b17)
Deleting (on-table b17)
Deleting (arm-empty)
Adding (holding b17)

Checking next happening (time 42)
Deleting (clear b26)
Deleting (holding b17)
Adding (arm-empty)
Adding (clear b17)
Adding (on b17 b26)

Checking next happening (time 43)
Deleting (clear b13)
Deleting (on-table b13)
Deleting (arm-empty)
Adding (holding b13)

Checking next happening (time 44)
Deleting (clear b10)
Deleting (holding b13)
Adding (arm-empty)
Adding (clear b13)
Adding (on b13 b10)

Checking next happening (time 45)
Deleting (on b2 b18)
Deleting (clear b2)
Deleting (arm-empty)
Adding (holding b2)
Adding (clear b18)

Checking next happening (time 46)
Deleting (holding b2)
Adding (clear b2)
Adding (arm-empty)
Adding (on-table b2)

Checking next happening (time 47)
Deleting (clear b18)
Deleting (on-table b18)
Deleting (arm-empty)
Adding (holding b18)

Checking next happening (time 48)
Deleting (clear b8)
Deleting (holding b18)
Adding (arm-empty)
Adding (clear b18)
Adding (on b18 b8)

Checking next happening (time 49)
Deleting (clear b2)
Deleting (on-table b2)
Deleting (arm-empty)
Adding (holding b2)

Checking next happening (time 50)
Deleting (clear b18)
Deleting (holding b2)
Adding (arm-empty)
Adding (clear b2)
Adding (on b2 b18)

Checking next happening (time 51)
Deleting (on b13 b10)
Deleting (clear b13)
Deleting (arm-empty)
Adding (holding b13)
Adding (clear b10)

Checking next happening (time 52)
Deleting (holding b13)
Adding (clear b13)
Adding (arm-empty)
Adding (on-table b13)

Checking next happening (time 53)
Deleting (on b10 b11)
Deleting (clear b10)
Deleting (arm-empty)
Adding (holding b10)
Adding (clear b11)

Checking next happening (time 54)
Deleting (holding b10)
Adding (clear b10)
Adding (arm-empty)
Adding (on-table b10)

Checking next happening (time 55)
Deleting (clear b13)
Deleting (on-table b13)
Deleting (arm-empty)
Adding (holding b13)

Checking next happening (time 56)
Deleting (clear b10)
Deleting (holding b13)
Adding (arm-empty)
Adding (clear b13)
Adding (on b13 b10)

Checking next happening (time 57)
Deleting (on b11 b6)
Deleting (clear b11)
Deleting (arm-empty)
Adding (holding b11)
Adding (clear b6)

Checking next happening (time 58)
Deleting (clear b28)
Deleting (holding b11)
Adding (arm-empty)
Adding (clear b11)
Adding (on b11 b28)

Checking next happening (time 59)
Deleting (on b6 b21)
Deleting (clear b6)
Deleting (arm-empty)
Adding (holding b6)
Adding (clear b21)

Checking next happening (time 60)
Deleting (clear b2)
Deleting (holding b6)
Adding (arm-empty)
Adding (clear b6)
Adding (on b6 b2)

Checking next happening (time 61)
Deleting (on b22 b4)
Deleting (clear b22)
Deleting (arm-empty)
Adding (holding b22)
Adding (clear b4)

Checking next happening (time 62)
Deleting (holding b22)
Adding (clear b22)
Adding (arm-empty)
Adding (on-table b22)

Checking next happening (time 63)
Deleting (clear b4)
Deleting (on-table b4)
Deleting (arm-empty)
Adding (holding b4)

Checking next happening (time 64)
Deleting (clear b6)
Deleting (holding b4)
Adding (arm-empty)
Adding (clear b4)
Adding (on b4 b6)

Checking next happening (time 65)
Deleting (clear b22)
Deleting (on-table b22)
Deleting (arm-empty)
Adding (holding b22)

Checking next happening (time 66)
Deleting (clear b4)
Deleting (holding b22)
Adding (arm-empty)
Adding (clear b22)
Adding (on b22 b4)

Checking next happening (time 67)
Deleting (on b13 b10)
Deleting (clear b13)
Deleting (arm-empty)
Adding (holding b13)
Adding (clear b10)

Checking next happening (time 68)
Deleting (holding b13)
Adding (clear b13)
Adding (arm-empty)
Adding (on-table b13)

Checking next happening (time 69)
Deleting (clear b10)
Deleting (on-table b10)
Deleting (arm-empty)
Adding (holding b10)

Checking next happening (time 70)
Deleting (clear b11)
Deleting (holding b10)
Adding (arm-empty)
Adding (clear b10)
Adding (on b10 b11)

Checking next happening (time 71)
Deleting (clear b13)
Deleting (on-table b13)
Deleting (arm-empty)
Adding (holding b13)

Checking next happening (time 72)
Deleting (clear b10)
Deleting (holding b13)
Adding (arm-empty)
Adding (clear b13)
Adding (on b13 b10)

Checking next happening (time 73)
Deleting (on b21 b27)
Deleting (clear b21)
Deleting (arm-empty)
Adding (holding b21)
Adding (clear b27)

Checking next happening (time 74)
Deleting (holding b21)
Adding (clear b21)
Adding (arm-empty)
Adding (on-table b21)

Checking next happening (time 75)
Deleting (on b27 b19)
Deleting (clear b27)
Deleting (arm-empty)
Adding (holding b27)
Adding (clear b19)

Checking next happening (time 76)
Deleting (clear b25)
Deleting (holding b27)
Adding (arm-empty)
Adding (clear b27)
Adding (on b27 b25)

Checking next happening (time 77)
Deleting (clear b19)
Deleting (on-table b19)
Deleting (arm-empty)
Adding (holding b19)

Checking next happening (time 78)
Deleting (clear b3)
Deleting (holding b19)
Adding (arm-empty)
Adding (clear b19)
Adding (on b19 b3)

Checking next happening (time 79)
Deleting (clear b14)
Deleting (on-table b14)
Deleting (arm-empty)
Adding (holding b14)

Checking next happening (time 80)
Deleting (clear b19)
Deleting (holding b14)
Adding (arm-empty)
Adding (clear b14)
Adding (on b14 b19)

Checking next happening (time 81)
Deleting (clear b12)
Deleting (on-table b12)
Deleting (arm-empty)
Adding (holding b12)

Checking next happening (time 82)
Deleting (clear b27)
Deleting (holding b12)
Adding (arm-empty)
Adding (clear b12)
Adding (on b12 b27)

Checking next happening (time 83)
Deleting (on b9 b7)
Deleting (clear b9)
Deleting (arm-empty)
Adding (holding b9)
Adding (clear b7)

Checking next happening (time 84)
Deleting (holding b9)
Adding (clear b9)
Adding (arm-empty)
Adding (on-table b9)

Checking next happening (time 85)
Deleting (on b7 b29)
Deleting (clear b7)
Deleting (arm-empty)
Adding (holding b7)
Adding (clear b29)

Checking next happening (time 86)
Deleting (holding b7)
Adding (clear b7)
Adding (arm-empty)
Adding (on-table b7)

Checking next happening (time 87)
Deleting (clear b9)
Deleting (on-table b9)
Deleting (arm-empty)
Adding (holding b9)

Checking next happening (time 88)
Deleting (clear b7)
Deleting (holding b9)
Adding (arm-empty)
Adding (clear b9)
Adding (on b9 b7)

Checking next happening (time 89)
Deleting (on b29 b5)
Deleting (clear b29)
Deleting (arm-empty)
Adding (holding b29)
Adding (clear b5)

Checking next happening (time 90)
Deleting (clear b22)
Deleting (holding b29)
Adding (arm-empty)
Adding (clear b29)
Adding (on b29 b22)

Checking next happening (time 91)
Deleting (on b5 b15)
Deleting (clear b5)
Deleting (arm-empty)
Adding (holding b5)
Adding (clear b15)

Checking next happening (time 92)
Deleting (clear b9)
Deleting (holding b5)
Adding (arm-empty)
Adding (clear b5)
Adding (on b5 b9)

Checking next happening (time 93)
Deleting (clear b21)
Deleting (on-table b21)
Deleting (arm-empty)
Adding (holding b21)

Checking next happening (time 94)
Deleting (clear b5)
Deleting (holding b21)
Adding (arm-empty)
Adding (clear b21)
Adding (on b21 b5)

Checking next happening (time 95)
Deleting (on b15 b24)
Deleting (clear b15)
Deleting (arm-empty)
Adding (holding b15)
Adding (clear b24)

Checking next happening (time 96)
Deleting (clear b13)
Deleting (holding b15)
Adding (arm-empty)
Adding (clear b15)
Adding (on b15 b13)

Checking next happening (time 97)
Deleting (clear b24)
Deleting (on-table b24)
Deleting (arm-empty)
Adding (holding b24)

Checking next happening (time 98)
Deleting (clear b21)
Deleting (holding b24)
Adding (arm-empty)
Adding (clear b24)
Adding (on b24 b21)

Checking next happening (time 99)
Deleting (on b16 b1)
Deleting (clear b16)
Deleting (arm-empty)
Adding (holding b16)
Adding (clear b1)

Checking next happening (time 100)
Deleting (holding b16)
Adding (clear b16)
Adding (arm-empty)
Adding (on-table b16)

Checking next happening (time 101)
Deleting (clear b1)
Deleting (on-table b1)
Deleting (arm-empty)
Adding (holding b1)

Checking next happening (time 102)
Deleting (clear b24)
Deleting (holding b1)
Adding (arm-empty)
Adding (clear b1)
Adding (on b1 b24)

Checking next happening (time 103)
Deleting (clear b16)
Deleting (on-table b16)
Deleting (arm-empty)
Adding (holding b16)

Checking next happening (time 104)
Deleting (clear b1)
Deleting (holding b16)
Adding (arm-empty)
Adding (clear b16)
Adding (on b16 b1)

Checking next happening (time 105)
Deleting (on b12 b27)
Deleting (clear b12)
Deleting (arm-empty)
Adding (holding b12)
Adding (clear b27)

Checking next happening (time 106)
Deleting (holding b12)
Adding (clear b12)
Adding (arm-empty)
Adding (on-table b12)

Checking next happening (time 107)
Deleting (on b27 b25)
Deleting (clear b27)
Deleting (arm-empty)
Adding (holding b27)
Adding (clear b25)

Checking next happening (time 108)
Deleting (holding b27)
Adding (clear b27)
Adding (arm-empty)
Adding (on-table b27)

Checking next happening (time 109)
Deleting (clear b25)
Deleting (on-table b25)
Deleting (arm-empty)
Adding (holding b25)

Checking next happening (time 110)
Deleting (clear b15)
Deleting (holding b25)
Adding (arm-empty)
Adding (clear b25)
Adding (on b25 b15)

Checking next happening (time 111)
Deleting (clear b27)
Deleting (on-table b27)
Deleting (arm-empty)
Adding (holding b27)

Checking next happening (time 112)
Deleting (clear b25)
Deleting (holding b27)
Adding (arm-empty)
Adding (clear b27)
Adding (on b27 b25)

Checking next happening (time 113)
Deleting (clear b12)
Deleting (on-table b12)
Deleting (arm-empty)
Adding (holding b12)

Checking next happening (time 114)
Deleting (clear b27)
Deleting (holding b12)
Adding (arm-empty)
Adding (clear b12)
Adding (on b12 b27)

Checking next happening (time 115)
Deleting (on b16 b1)
Deleting (clear b16)
Deleting (arm-empty)
Adding (holding b16)
Adding (clear b1)

Checking next happening (time 116)
Deleting (holding b16)
Adding (clear b16)
Adding (arm-empty)
Adding (on-table b16)

Checking next happening (time 117)
Deleting (on b1 b24)
Deleting (clear b1)
Deleting (arm-empty)
Adding (holding b1)
Adding (clear b24)

Checking next happening (time 118)
Deleting (holding b1)
Adding (clear b1)
Adding (arm-empty)
Adding (on-table b1)

Checking next happening (time 119)
Deleting (on b24 b21)
Deleting (clear b24)
Deleting (arm-empty)
Adding (holding b24)
Adding (clear b21)

Checking next happening (time 120)
Deleting (holding b24)
Adding (clear b24)
Adding (arm-empty)
Adding (on-table b24)

Checking next happening (time 121)
Deleting (on b21 b5)
Deleting (clear b21)
Deleting (arm-empty)
Adding (holding b21)
Adding (clear b5)

Checking next happening (time 122)
Deleting (holding b21)
Adding (clear b21)
Adding (arm-empty)
Adding (on-table b21)

Checking next happening (time 123)
Deleting (on b5 b9)
Deleting (clear b5)
Deleting (arm-empty)
Adding (holding b5)
Adding (clear b9)

Checking next happening (time 124)
Deleting (holding b5)
Adding (clear b5)
Adding (arm-empty)
Adding (on-table b5)

Checking next happening (time 125)
Deleting (clear b24)
Deleting (on-table b24)
Deleting (arm-empty)
Adding (holding b24)

Checking next happening (time 126)
Deleting (clear b21)
Deleting (holding b24)
Adding (arm-empty)
Adding (clear b24)
Adding (on b24 b21)

Checking next happening (time 127)
Deleting (on b9 b7)
Deleting (clear b9)
Deleting (arm-empty)
Adding (holding b9)
Adding (clear b7)

Checking next happening (time 128)
Deleting (holding b9)
Adding (clear b9)
Adding (arm-empty)
Adding (on-table b9)

Checking next happening (time 129)
Deleting (clear b7)
Deleting (on-table b7)
Deleting (arm-empty)
Adding (holding b7)

Checking next happening (time 130)
Deleting (clear b29)
Deleting (holding b7)
Adding (arm-empty)
Adding (clear b7)
Adding (on b7 b29)

Checking next happening (time 131)
Deleting (clear b9)
Deleting (on-table b9)
Deleting (arm-empty)
Adding (holding b9)

Checking next happening (time 132)
Deleting (clear b7)
Deleting (holding b9)
Adding (arm-empty)
Adding (clear b9)
Adding (on b9 b7)

Checking next happening (time 133)
Deleting (clear b5)
Deleting (on-table b5)
Deleting (arm-empty)
Adding (holding b5)

Checking next happening (time 134)
Deleting (clear b9)
Deleting (holding b5)
Adding (arm-empty)
Adding (clear b5)
Adding (on b5 b9)

Checking next happening (time 135)
Deleting (clear b16)
Deleting (on-table b16)
Deleting (arm-empty)
Adding (holding b16)

Checking next happening (time 136)
Deleting (clear b1)
Deleting (holding b16)
Adding (arm-empty)
Adding (clear b16)
Adding (on b16 b1)

Checking next happening (time 137)
Deleting (on b24 b21)
Deleting (clear b24)
Deleting (arm-empty)
Adding (holding b24)
Adding (clear b21)

Checking next happening (time 138)
Deleting (holding b24)
Adding (clear b24)
Adding (arm-empty)
Adding (on-table b24)

Checking next happening (time 139)
Deleting (clear b21)
Deleting (on-table b21)
Deleting (arm-empty)
Adding (holding b21)

Checking next happening (time 140)
Deleting (clear b5)
Deleting (holding b21)
Adding (arm-empty)
Adding (clear b21)
Adding (on b21 b5)

Checking next happening (time 141)
Deleting (clear b24)
Deleting (on-table b24)
Deleting (arm-empty)
Adding (holding b24)

Checking next happening (time 142)
Deleting (clear b21)
Deleting (holding b24)
Adding (arm-empty)
Adding (clear b24)
Adding (on b24 b21)

Checking next happening (time 143)
Deleting (on b16 b1)
Deleting (clear b16)
Deleting (arm-empty)
Adding (holding b16)
Adding (clear b1)

Checking next happening (time 144)
Deleting (holding b16)
Adding (clear b16)
Adding (arm-empty)
Adding (on-table b16)

Checking next happening (time 145)
Deleting (clear b1)
Deleting (on-table b1)
Deleting (arm-empty)
Adding (holding b1)

Checking next happening (time 146)
Deleting (clear b24)
Deleting (holding b1)
Adding (arm-empty)
Adding (clear b1)
Adding (on b1 b24)

Checking next happening (time 147)
Deleting (clear b16)
Deleting (on-table b16)
Deleting (arm-empty)
Adding (holding b16)

Checking next happening (time 148)
Deleting (clear b1)
Deleting (holding b16)
Adding (arm-empty)
Adding (clear b16)
Adding (on b16 b1)
Plan executed successfully - checking goal
Plan valid
Final value: 148 

Successful plans:
Value: 148
 /home/jfan5/Safety-gen/runs/benchmark/optic/blocksworld_20260205_140901/blocksworld/optic_results/bw_ops3_n29_seed29001.plan 148
